results - Copia/mps/URT_07_deadline_heurTrue.mps
NAME JobShopModel
ROWS
 N  OBJ
 G  c0      
 L  c1      
 G  c2      
 L  c3      
 G  c4      
 L  c5      
 G  c6      
 L  c7      
 G  c8      
 L  c9      
 G  c10     
 L  c11     
 G  c12     
 G  c13     
 G  c14     
 G  c15     
 G  c16     
 G  c17     
 E  c18     
 E  c19     
 E  c20     
 E  c21     
 E  c22     
 E  c23     
 E  c24     
 E  c25     
 E  c26     
 L  c27     
 L  c28     
 L  c29     
 L  c30     
 L  c31     
 L  c32     
 L  c33     
 L  c34     
 L  c35     
 L  c36     
 L  c37     
 L  c38     
 L  c39     
 L  c40     
 L  c41     
 L  c42     
 L  c43     
 L  c44     
 G  c45     
 G  c46     
 G  c47     
 G  c48     
 G  c49     
 G  c50     
 G  c51     
 G  c52     
 G  c53     
 G  c54     
 G  c55     
 G  c56     
 G  c57     
 G  c58     
 G  c59     
 G  c60     
 G  c61     
 G  c62     
 G  c63     
 G  c64     
 G  c65     
 G  c66     
 G  c67     
 G  c68     
 G  c69     
 G  c70     
 G  c71     
 G  c72     
 G  c73     
 G  c74     
 G  c75     
 G  c76     
 G  c77     
 G  c78     
 G  c79     
 G  c80     
 G  c81     
 G  c82     
 G  c83     
 G  c84     
 G  c85     
 G  c86     
 G  c87     
 G  c88     
 G  c89     
 G  c90     
 G  c91     
 G  c92     
 G  c93     
 G  c94     
 G  c95     
 G  c96     
 G  c97     
 G  c98     
 G  c99     
 G  c100    
 G  c101    
 G  c102    
 G  c103    
 G  c104    
 G  c105    
 G  c106    
 G  c107    
 G  c108    
 G  c109    
 G  c110    
 G  c111    
 G  c112    
 G  c113    
 G  c114    
 G  c115    
 G  c116    
 G  c117    
 G  c118    
 G  c119    
 G  c120    
 G  c121    
 G  c122    
 G  c123    
 G  c124    
 G  c125    
 G  c126    
 G  c127    
 G  c128    
 G  c129    
 G  c130    
 G  c131    
 G  c132    
 G  c133    
 G  c134    
 G  c135    
 G  c136    
 G  c137    
 G  c138    
 G  c139    
 G  c140    
 G  c141    
 G  c142    
 G  c143    
 G  c144    
 G  c145    
 G  c146    
 G  c147    
 G  c148    
 G  c149    
 G  c150    
 G  OF_constraint
COLUMNS
    MARKER    'MARKER'                 'INTORG'
    y[0,0,3]  c0        3
    y[0,0,3]  c1        3
    y[0,0,3]  c18       1
    y[0,0,3]  c27       -10000000
    y[0,0,3]  c51       -10000000
    y[0,0,3]  c52       -10000000
    y[0,0,3]  c55       -10000000
    y[0,0,3]  c56       -10000000
    y[0,0,3]  c57       -10000000
    y[0,0,3]  c58       -10000000
    y[0,0,3]  c73       -10000000
    y[0,0,3]  c74       -10000000
    y[0,0,3]  c115      -2
    y[0,0,4]  c2        4
    y[0,0,4]  c3        4
    y[0,0,4]  c18       1
    y[0,0,4]  c28       -10000000
    y[0,0,4]  c53       -10000000
    y[0,0,4]  c54       -10000000
    y[0,0,4]  c59       -10000000
    y[0,0,4]  c60       -10000000
    y[0,0,4]  c61       -10000000
    y[0,0,4]  c62       -10000000
    y[0,0,4]  c75       -10000000
    y[0,0,4]  c76       -10000000
    y[0,0,4]  c117      -2
    y[0,1,0]  c19       1
    y[0,1,0]  c29       -10000000
    y[0,1,0]  c45       -2
    y[0,1,0]  c69       -10000000
    y[0,1,0]  c70       -10000000
    y[0,1,0]  c119      -1
    y[0,1,2]  c19       1
    y[0,1,2]  c30       -10000000
    y[0,1,2]  c45       -2
    y[0,1,2]  c63       -10000000
    y[0,1,2]  c64       -10000000
    y[0,1,2]  c65       -10000000
    y[0,1,2]  c66       -10000000
    y[0,1,2]  c67       -10000000
    y[0,1,2]  c68       -10000000
    y[0,1,2]  c71       -10000000
    y[0,1,2]  c72       -10000000
    y[0,1,2]  c121      -1
    y[0,2,3]  c20       1
    y[0,2,3]  c31       -10000000
    y[0,2,3]  c46       -5
    y[0,2,3]  c51       -10000000
    y[0,2,3]  c52       -10000000
    y[0,2,3]  c73       -10000000
    y[0,2,3]  c74       -10000000
    y[0,2,3]  c77       -10000000
    y[0,2,3]  c78       -10000000
    y[0,2,3]  c79       -10000000
    y[0,2,3]  c80       -10000000
    y[0,2,3]  c123      -1
    y[0,2,4]  c20       1
    y[0,2,4]  c32       -10000000
    y[0,2,4]  c46       -4
    y[0,2,4]  c53       -10000000
    y[0,2,4]  c54       -10000000
    y[0,2,4]  c75       -10000000
    y[0,2,4]  c76       -10000000
    y[0,2,4]  c81       -10000000
    y[0,2,4]  c82       -10000000
    y[0,2,4]  c83       -10000000
    y[0,2,4]  c84       -10000000
    y[0,2,4]  c125      -1
    y[1,0,2]  c4        4
    y[1,0,2]  c5        4
    y[1,0,2]  c21       1
    y[1,0,2]  c33       -10000000
    y[1,0,2]  c63       -10000000
    y[1,0,2]  c64       -10000000
    y[1,0,2]  c85       -10000000
    y[1,0,2]  c86       -10000000
    y[1,0,2]  c89       -10000000
    y[1,0,2]  c90       -10000000
    y[1,0,2]  c91       -10000000
    y[1,0,2]  c92       -10000000
    y[1,0,2]  c93       -10000000
    y[1,0,2]  c94       -10000000
    y[1,0,2]  c127      -3
    y[1,0,3]  c6        2
    y[1,0,3]  c7        2
    y[1,0,3]  c21       1
    y[1,0,3]  c34       -10000000
    y[1,0,3]  c55       -10000000
    y[1,0,3]  c56       -10000000
    y[1,0,3]  c77       -10000000
    y[1,0,3]  c78       -10000000
    y[1,0,3]  c87       -10000000
    y[1,0,3]  c88       -10000000
    y[1,0,3]  c95       -10000000
    y[1,0,3]  c96       -10000000
    y[1,0,3]  c129      -3
    y[1,1,2]  c22       1
    y[1,1,2]  c35       -10000000
    y[1,1,2]  c47       -4
    y[1,1,2]  c65       -10000000
    y[1,1,2]  c66       -10000000
    y[1,1,2]  c85       -10000000
    y[1,1,2]  c86       -10000000
    y[1,1,2]  c93       -10000000
    y[1,1,2]  c94       -10000000
    y[1,1,2]  c97       -10000000
    y[1,1,2]  c98       -10000000
    y[1,1,2]  c99       -10000000
    y[1,1,2]  c100      -10000000
    y[1,1,2]  c131      -2
    y[1,1,3]  c22       1
    y[1,1,3]  c36       -10000000
    y[1,1,3]  c47       -5
    y[1,1,3]  c57       -10000000
    y[1,1,3]  c58       -10000000
    y[1,1,3]  c79       -10000000
    y[1,1,3]  c80       -10000000
    y[1,1,3]  c87       -10000000
    y[1,1,3]  c88       -10000000
    y[1,1,3]  c95       -10000000
    y[1,1,3]  c96       -10000000
    y[1,1,3]  c133      -2
    y[1,2,1]  c23       1
    y[1,2,1]  c37       -10000000
    y[1,2,1]  c48       -5
    y[1,2,1]  c101      -10000000
    y[1,2,1]  c102      -10000000
    y[1,2,1]  c105      -10000000
    y[1,2,1]  c106      -10000000
    y[1,2,1]  c135      -2
    y[1,2,4]  c23       1
    y[1,2,4]  c38       -10000000
    y[1,2,4]  c48       -3
    y[1,2,4]  c59       -10000000
    y[1,2,4]  c60       -10000000
    y[1,2,4]  c81       -10000000
    y[1,2,4]  c82       -10000000
    y[1,2,4]  c103      -10000000
    y[1,2,4]  c104      -10000000
    y[1,2,4]  c137      -2
    y[2,0,1]  c8        4
    y[2,0,1]  c9        4
    y[2,0,1]  c24       1
    y[2,0,1]  c39       -10000000
    y[2,0,1]  c101      -10000000
    y[2,0,1]  c102      -10000000
    y[2,0,1]  c107      -10000000
    y[2,0,1]  c108      -10000000
    y[2,0,1]  c109      -10000000
    y[2,0,1]  c110      -10000000
    y[2,0,1]  c139      -2
    y[2,0,4]  c10       5
    y[2,0,4]  c11       5
    y[2,0,4]  c24       1
    y[2,0,4]  c40       -10000000
    y[2,0,4]  c61       -10000000
    y[2,0,4]  c62       -10000000
    y[2,0,4]  c83       -10000000
    y[2,0,4]  c84       -10000000
    y[2,0,4]  c103      -10000000
    y[2,0,4]  c104      -10000000
    y[2,0,4]  c141      -2
    y[2,1,1]  c25       1
    y[2,1,1]  c41       -10000000
    y[2,1,1]  c49       -2
    y[2,1,1]  c105      -10000000
    y[2,1,1]  c106      -10000000
    y[2,1,1]  c107      -10000000
    y[2,1,1]  c108      -10000000
    y[2,1,1]  c109      -10000000
    y[2,1,1]  c110      -10000000
    y[2,1,1]  c143      -1
    y[2,1,2]  c25       1
    y[2,1,2]  c42       -10000000
    y[2,1,2]  c49       -2
    y[2,1,2]  c67       -10000000
    y[2,1,2]  c68       -10000000
    y[2,1,2]  c89       -10000000
    y[2,1,2]  c90       -10000000
    y[2,1,2]  c97       -10000000
    y[2,1,2]  c98       -10000000
    y[2,1,2]  c111      -10000000
    y[2,1,2]  c112      -10000000
    y[2,1,2]  c113      -10000000
    y[2,1,2]  c114      -10000000
    y[2,1,2]  c145      -1
    y[2,2,0]  c26       1
    y[2,2,0]  c43       -10000000
    y[2,2,0]  c50       -2
    y[2,2,0]  c69       -10000000
    y[2,2,0]  c70       -10000000
    y[2,2,0]  c147      -2
    y[2,2,2]  c26       1
    y[2,2,2]  c44       -10000000
    y[2,2,2]  c50       -5
    y[2,2,2]  c71       -10000000
    y[2,2,2]  c72       -10000000
    y[2,2,2]  c91       -10000000
    y[2,2,2]  c92       -10000000
    y[2,2,2]  c99       -10000000
    y[2,2,2]  c100      -10000000
    y[2,2,2]  c111      -10000000
    y[2,2,2]  c112      -10000000
    y[2,2,2]  c113      -10000000
    y[2,2,2]  c114      -10000000
    y[2,2,2]  c149      -2
    x[0,0,0,0]  OBJ       0
    x[0,0,0,1]  OBJ       0
    x[0,0,0,2]  c51       10000000
    x[0,0,0,2]  c52       -10000000
    x[0,0,0,2]  c53       10000000
    x[0,0,0,2]  c54       -10000000
    x[0,0,1,0]  c55       10000000
    x[0,0,1,0]  c56       -10000000
    x[0,0,1,1]  c57       10000000
    x[0,0,1,1]  c58       -10000000
    x[0,0,1,2]  c59       10000000
    x[0,0,1,2]  c60       -10000000
    x[0,0,2,0]  c61       10000000
    x[0,0,2,0]  c62       -10000000
    x[0,0,2,1]  OBJ       0
    x[0,0,2,2]  OBJ       0
    x[0,1,0,0]  OBJ       0
    x[0,1,0,1]  OBJ       0
    x[0,1,0,2]  OBJ       0
    x[0,1,1,0]  c63       10000000
    x[0,1,1,0]  c64       -10000000
    x[0,1,1,1]  c65       10000000
    x[0,1,1,1]  c66       -10000000
    x[0,1,1,2]  OBJ       0
    x[0,1,2,0]  OBJ       0
    x[0,1,2,1]  c67       10000000
    x[0,1,2,1]  c68       -10000000
    x[0,1,2,2]  c69       10000000
    x[0,1,2,2]  c70       -10000000
    x[0,1,2,2]  c71       10000000
    x[0,1,2,2]  c72       -10000000
    x[0,2,0,0]  c73       10000000
    x[0,2,0,0]  c74       -10000000
    x[0,2,0,0]  c75       10000000
    x[0,2,0,0]  c76       -10000000
    x[0,2,0,1]  OBJ       0
    x[0,2,0,2]  OBJ       0
    x[0,2,1,0]  c77       10000000
    x[0,2,1,0]  c78       -10000000
    x[0,2,1,1]  c79       10000000
    x[0,2,1,1]  c80       -10000000
    x[0,2,1,2]  c81       10000000
    x[0,2,1,2]  c82       -10000000
    x[0,2,2,0]  c83       10000000
    x[0,2,2,0]  c84       -10000000
    x[0,2,2,1]  OBJ       0
    x[0,2,2,2]  OBJ       0
    x[1,0,0,0]  OBJ       0
    x[1,0,0,1]  OBJ       0
    x[1,0,0,2]  OBJ       0
    x[1,0,1,0]  OBJ       0
    x[1,0,1,1]  c85       10000000
    x[1,0,1,1]  c86       -10000000
    x[1,0,1,1]  c87       10000000
    x[1,0,1,1]  c88       -10000000
    x[1,0,1,2]  OBJ       0
    x[1,0,2,0]  OBJ       0
    x[1,0,2,1]  c89       10000000
    x[1,0,2,1]  c90       -10000000
    x[1,0,2,2]  c91       10000000
    x[1,0,2,2]  c92       -10000000
    x[1,1,0,0]  OBJ       0
    x[1,1,0,1]  OBJ       0
    x[1,1,0,2]  OBJ       0
    x[1,1,1,0]  c93       10000000
    x[1,1,1,0]  c94       -10000000
    x[1,1,1,0]  c95       10000000
    x[1,1,1,0]  c96       -10000000
    x[1,1,1,1]  OBJ       0
    x[1,1,1,2]  OBJ       0
    x[1,1,2,0]  OBJ       0
    x[1,1,2,1]  c97       10000000
    x[1,1,2,1]  c98       -10000000
    x[1,1,2,2]  c99       10000000
    x[1,1,2,2]  c100      -10000000
    x[1,2,0,0]  OBJ       0
    x[1,2,0,1]  OBJ       0
    x[1,2,0,2]  OBJ       0
    x[1,2,1,0]  OBJ       0
    x[1,2,1,1]  OBJ       0
    x[1,2,1,2]  OBJ       0
    x[1,2,2,0]  c101      10000000
    x[1,2,2,0]  c102      -10000000
    x[1,2,2,0]  c103      10000000
    x[1,2,2,0]  c104      -10000000
    x[1,2,2,1]  c105      10000000
    x[1,2,2,1]  c106      -10000000
    x[1,2,2,2]  OBJ       0
    x[2,0,0,0]  OBJ       0
    x[2,0,0,1]  OBJ       0
    x[2,0,0,2]  OBJ       0
    x[2,0,1,0]  OBJ       0
    x[2,0,1,1]  OBJ       0
    x[2,0,1,2]  OBJ       0
    x[2,0,2,0]  OBJ       0
    x[2,0,2,1]  c107      10000000
    x[2,0,2,1]  c108      -10000000
    x[2,0,2,2]  OBJ       0
    x[2,1,0,0]  OBJ       0
    x[2,1,0,1]  OBJ       0
    x[2,1,0,2]  OBJ       0
    x[2,1,1,0]  OBJ       0
    x[2,1,1,1]  OBJ       0
    x[2,1,1,2]  OBJ       0
    x[2,1,2,0]  c109      10000000
    x[2,1,2,0]  c110      -10000000
    x[2,1,2,1]  OBJ       0
    x[2,1,2,2]  c111      10000000
    x[2,1,2,2]  c112      -10000000
    x[2,2,0,0]  OBJ       0
    x[2,2,0,1]  OBJ       0
    x[2,2,0,2]  OBJ       0
    x[2,2,1,0]  OBJ       0
    x[2,2,1,1]  OBJ       0
    x[2,2,1,2]  OBJ       0
    x[2,2,2,0]  OBJ       0
    x[2,2,2,1]  c113      10000000
    x[2,2,2,1]  c114      -10000000
    x[2,2,2,2]  OBJ       0
    s[0,0,3]  c0        1
    s[0,0,3]  c1        1
    s[0,0,3]  c27       1
    s[0,0,3]  c45       1
    s[0,0,3]  c46       1
    s[0,0,3]  c51       -1
    s[0,0,3]  c52       1
    s[0,0,3]  c55       -1
    s[0,0,3]  c56       1
    s[0,0,3]  c57       -1
    s[0,0,3]  c58       1
    s[0,0,3]  c73       1
    s[0,0,3]  c74       -1
    s[0,0,3]  c115      1
    s[0,0,3]  c116      1
    s[0,0,4]  c2        1
    s[0,0,4]  c3        1
    s[0,0,4]  c28       1
    s[0,0,4]  c45       1
    s[0,0,4]  c46       1
    s[0,0,4]  c53       -1
    s[0,0,4]  c54       1
    s[0,0,4]  c59       -1
    s[0,0,4]  c60       1
    s[0,0,4]  c61       -1
    s[0,0,4]  c62       1
    s[0,0,4]  c75       1
    s[0,0,4]  c76       -1
    s[0,0,4]  c117      1
    s[0,0,4]  c118      1
    s[0,1,0]  c29       1
    s[0,1,0]  c45       -1
    s[0,1,0]  c69       -1
    s[0,1,0]  c70       1
    s[0,1,0]  c119      1
    s[0,1,0]  c120      1
    s[0,1,2]  c30       1
    s[0,1,2]  c45       -1
    s[0,1,2]  c63       -1
    s[0,1,2]  c64       1
    s[0,1,2]  c65       -1
    s[0,1,2]  c66       1
    s[0,1,2]  c67       -1
    s[0,1,2]  c68       1
    s[0,1,2]  c71       -1
    s[0,1,2]  c72       1
    s[0,1,2]  c121      1
    s[0,1,2]  c122      1
    s[0,2,3]  c31       1
    s[0,2,3]  c46       -1
    s[0,2,3]  c51       1
    s[0,2,3]  c52       -1
    s[0,2,3]  c73       -1
    s[0,2,3]  c74       1
    s[0,2,3]  c77       -1
    s[0,2,3]  c78       1
    s[0,2,3]  c79       -1
    s[0,2,3]  c80       1
    s[0,2,3]  c123      1
    s[0,2,3]  c124      1
    s[0,2,4]  c32       1
    s[0,2,4]  c46       -1
    s[0,2,4]  c53       1
    s[0,2,4]  c54       -1
    s[0,2,4]  c75       -1
    s[0,2,4]  c76       1
    s[0,2,4]  c81       -1
    s[0,2,4]  c82       1
    s[0,2,4]  c83       -1
    s[0,2,4]  c84       1
    s[0,2,4]  c125      1
    s[0,2,4]  c126      1
    s[1,0,2]  c4        1
    s[1,0,2]  c5        1
    s[1,0,2]  c33       1
    s[1,0,2]  c47       1
    s[1,0,2]  c63       1
    s[1,0,2]  c64       -1
    s[1,0,2]  c85       -1
    s[1,0,2]  c86       1
    s[1,0,2]  c89       -1
    s[1,0,2]  c90       1
    s[1,0,2]  c91       -1
    s[1,0,2]  c92       1
    s[1,0,2]  c93       1
    s[1,0,2]  c94       -1
    s[1,0,2]  c127      1
    s[1,0,2]  c128      1
    s[1,0,3]  c6        1
    s[1,0,3]  c7        1
    s[1,0,3]  c34       1
    s[1,0,3]  c47       1
    s[1,0,3]  c55       1
    s[1,0,3]  c56       -1
    s[1,0,3]  c77       1
    s[1,0,3]  c78       -1
    s[1,0,3]  c87       -1
    s[1,0,3]  c88       1
    s[1,0,3]  c95       1
    s[1,0,3]  c96       -1
    s[1,0,3]  c129      1
    s[1,0,3]  c130      1
    s[1,1,2]  c35       1
    s[1,1,2]  c47       -1
    s[1,1,2]  c48       1
    s[1,1,2]  c65       1
    s[1,1,2]  c66       -1
    s[1,1,2]  c85       1
    s[1,1,2]  c86       -1
    s[1,1,2]  c93       -1
    s[1,1,2]  c94       1
    s[1,1,2]  c97       -1
    s[1,1,2]  c98       1
    s[1,1,2]  c99       -1
    s[1,1,2]  c100      1
    s[1,1,2]  c131      1
    s[1,1,2]  c132      1
    s[1,1,3]  c36       1
    s[1,1,3]  c47       -1
    s[1,1,3]  c48       1
    s[1,1,3]  c57       1
    s[1,1,3]  c58       -1
    s[1,1,3]  c79       1
    s[1,1,3]  c80       -1
    s[1,1,3]  c87       1
    s[1,1,3]  c88       -1
    s[1,1,3]  c95       -1
    s[1,1,3]  c96       1
    s[1,1,3]  c133      1
    s[1,1,3]  c134      1
    s[1,2,1]  c37       1
    s[1,2,1]  c48       -1
    s[1,2,1]  c101      -1
    s[1,2,1]  c102      1
    s[1,2,1]  c105      -1
    s[1,2,1]  c106      1
    s[1,2,1]  c135      1
    s[1,2,1]  c136      1
    s[1,2,4]  c38       1
    s[1,2,4]  c48       -1
    s[1,2,4]  c59       1
    s[1,2,4]  c60       -1
    s[1,2,4]  c81       1
    s[1,2,4]  c82       -1
    s[1,2,4]  c103      -1
    s[1,2,4]  c104      1
    s[1,2,4]  c137      1
    s[1,2,4]  c138      1
    s[2,0,1]  c8        1
    s[2,0,1]  c9        1
    s[2,0,1]  c39       1
    s[2,0,1]  c50       1
    s[2,0,1]  c101      1
    s[2,0,1]  c102      -1
    s[2,0,1]  c107      -1
    s[2,0,1]  c108      1
    s[2,0,1]  c109      1
    s[2,0,1]  c110      -1
    s[2,0,1]  c139      1
    s[2,0,1]  c140      1
    s[2,0,4]  c10       1
    s[2,0,4]  c11       1
    s[2,0,4]  c40       1
    s[2,0,4]  c50       1
    s[2,0,4]  c61       1
    s[2,0,4]  c62       -1
    s[2,0,4]  c83       1
    s[2,0,4]  c84       -1
    s[2,0,4]  c103      1
    s[2,0,4]  c104      -1
    s[2,0,4]  c141      1
    s[2,0,4]  c142      1
    s[2,1,1]  c41       1
    s[2,1,1]  c49       -1
    s[2,1,1]  c105      1
    s[2,1,1]  c106      -1
    s[2,1,1]  c107      1
    s[2,1,1]  c108      -1
    s[2,1,1]  c109      -1
    s[2,1,1]  c110      1
    s[2,1,1]  c143      1
    s[2,1,1]  c144      1
    s[2,1,2]  c42       1
    s[2,1,2]  c49       -1
    s[2,1,2]  c67       1
    s[2,1,2]  c68       -1
    s[2,1,2]  c89       1
    s[2,1,2]  c90       -1
    s[2,1,2]  c97       1
    s[2,1,2]  c98       -1
    s[2,1,2]  c111      -1
    s[2,1,2]  c112      1
    s[2,1,2]  c113      1
    s[2,1,2]  c114      -1
    s[2,1,2]  c145      1
    s[2,1,2]  c146      1
    s[2,2,0]  c43       1
    s[2,2,0]  c49       1
    s[2,2,0]  c50       -1
    s[2,2,0]  c69       1
    s[2,2,0]  c70       -1
    s[2,2,0]  c147      1
    s[2,2,0]  c148      1
    s[2,2,2]  c44       1
    s[2,2,2]  c49       1
    s[2,2,2]  c50       -1
    s[2,2,2]  c71       1
    s[2,2,2]  c72       -1
    s[2,2,2]  c91       1
    s[2,2,2]  c92       -1
    s[2,2,2]  c99       1
    s[2,2,2]  c100      -1
    s[2,2,2]  c111      1
    s[2,2,2]  c112      -1
    s[2,2,2]  c113      -1
    s[2,2,2]  c114      1
    s[2,2,2]  c149      1
    s[2,2,2]  c150      1
    Z_FO      OBJ       1
    Z_FO      OF_constraint  1
    C118      c0        -10000000
    C118      c1        -10000000
    C118      c12       1
    C118      OF_constraint  12
    C119      c2        -10000000
    C119      c3        -10000000
    C119      c13       1
    C119      OF_constraint  11
    C120      c4        -10000000
    C120      c5        -10000000
    C120      c14       1
    C120      OF_constraint  11
    C121      c6        -10000000
    C121      c7        -10000000
    C121      c15       1
    C121      OF_constraint  13
    C122      c8        -10000000
    C122      c9        -10000000
    C122      c16       1
    C122      OF_constraint  2
    C123      c10       -10000000
    C123      c11       -10000000
    C123      c17       1
    C123      OF_constraint  1
    MARKER    'MARKER'                 'INTEND'
RHS
    RHS1      c0        -9999985
    RHS1      c1        15
    RHS1      c2        -9999985
    RHS1      c3        15
    RHS1      c4        -9999985
    RHS1      c5        15
    RHS1      c6        -9999985
    RHS1      c7        15
    RHS1      c8        -9999994
    RHS1      c9        6
    RHS1      c10       -9999994
    RHS1      c11       6
    RHS1      c18       1
    RHS1      c19       1
    RHS1      c20       1
    RHS1      c21       1
    RHS1      c22       1
    RHS1      c23       1
    RHS1      c24       1
    RHS1      c25       1
    RHS1      c26       1
    RHS1      c51       -19999991
    RHS1      c52       -29999986
    RHS1      c53       -19999990
    RHS1      c54       -29999987
    RHS1      c55       -19999991
    RHS1      c56       -29999978
    RHS1      c57       -19999972
    RHS1      c58       -29999991
    RHS1      c59       -19999994
    RHS1      c60       -29999989
    RHS1      c61       -19999981
    RHS1      c62       -29999985
    RHS1      c63       -19999994
    RHS1      c64       -29999981
    RHS1      c65       -19999983
    RHS1      c66       -29999993
    RHS1      c67       -19999978
    RHS1      c68       -29999986
    RHS1      c69       -19999990
    RHS1      c70       -29999978
    RHS1      c71       -19999973
    RHS1      c72       -29999975
    RHS1      c73       -19999986
    RHS1      c74       -29999991
    RHS1      c75       -19999987
    RHS1      c76       -29999990
    RHS1      c77       -19999987
    RHS1      c78       -29999988
    RHS1      c79       -19999992
    RHS1      c80       -29999986
    RHS1      c81       -19999992
    RHS1      c82       -29999991
    RHS1      c83       -19999991
    RHS1      c84       -29999989
    RHS1      c85       -19999990
    RHS1      c86       -29999981
    RHS1      c87       -19999992
    RHS1      c88       -29999993
    RHS1      c89       -19999980
    RHS1      c90       -29999986
    RHS1      c91       -19999990
    RHS1      c92       -29999980
    RHS1      c93       -19999981
    RHS1      c94       -29999990
    RHS1      c95       -19999993
    RHS1      c96       -29999992
    RHS1      c97       -19999994
    RHS1      c98       -29999986
    RHS1      c99       -19999992
    RHS1      c100      -29999986
    RHS1      c101      -19999990
    RHS1      c102      -29999992
    RHS1      c103      -19999993
    RHS1      c104      -29999983
    RHS1      c105      -19999990
    RHS1      c106      -29999994
    RHS1      c107      -19999994
    RHS1      c108      -29999992
    RHS1      c109      -19999992
    RHS1      c110      -29999994
    RHS1      c111      -19999994
    RHS1      c112      -29999985
    RHS1      c113      -19999985
    RHS1      c114      -29999994
BOUNDS
 BV BND1      y[0,0,3]
 BV BND1      y[0,0,4]
 BV BND1      y[0,1,0]
 BV BND1      y[0,1,2]
 BV BND1      y[0,2,3]
 BV BND1      y[0,2,4]
 BV BND1      y[1,0,2]
 BV BND1      y[1,0,3]
 BV BND1      y[1,1,2]
 BV BND1      y[1,1,3]
 BV BND1      y[1,2,1]
 BV BND1      y[1,2,4]
 BV BND1      y[2,0,1]
 BV BND1      y[2,0,4]
 BV BND1      y[2,1,1]
 BV BND1      y[2,1,2]
 BV BND1      y[2,2,0]
 BV BND1      y[2,2,2]
 BV BND1      x[0,0,0,0]
 BV BND1      x[0,0,0,1]
 BV BND1      x[0,0,0,2]
 BV BND1      x[0,0,1,0]
 BV BND1      x[0,0,1,1]
 BV BND1      x[0,0,1,2]
 BV BND1      x[0,0,2,0]
 BV BND1      x[0,0,2,1]
 BV BND1      x[0,0,2,2]
 BV BND1      x[0,1,0,0]
 BV BND1      x[0,1,0,1]
 BV BND1      x[0,1,0,2]
 BV BND1      x[0,1,1,0]
 BV BND1      x[0,1,1,1]
 BV BND1      x[0,1,1,2]
 BV BND1      x[0,1,2,0]
 BV BND1      x[0,1,2,1]
 BV BND1      x[0,1,2,2]
 BV BND1      x[0,2,0,0]
 BV BND1      x[0,2,0,1]
 BV BND1      x[0,2,0,2]
 BV BND1      x[0,2,1,0]
 BV BND1      x[0,2,1,1]
 BV BND1      x[0,2,1,2]
 BV BND1      x[0,2,2,0]
 BV BND1      x[0,2,2,1]
 BV BND1      x[0,2,2,2]
 BV BND1      x[1,0,0,0]
 BV BND1      x[1,0,0,1]
 BV BND1      x[1,0,0,2]
 BV BND1      x[1,0,1,0]
 BV BND1      x[1,0,1,1]
 BV BND1      x[1,0,1,2]
 BV BND1      x[1,0,2,0]
 BV BND1      x[1,0,2,1]
 BV BND1      x[1,0,2,2]
 BV BND1      x[1,1,0,0]
 BV BND1      x[1,1,0,1]
 BV BND1      x[1,1,0,2]
 BV BND1      x[1,1,1,0]
 BV BND1      x[1,1,1,1]
 BV BND1      x[1,1,1,2]
 BV BND1      x[1,1,2,0]
 BV BND1      x[1,1,2,1]
 BV BND1      x[1,1,2,2]
 BV BND1      x[1,2,0,0]
 BV BND1      x[1,2,0,1]
 BV BND1      x[1,2,0,2]
 BV BND1      x[1,2,1,0]
 BV BND1      x[1,2,1,1]
 BV BND1      x[1,2,1,2]
 BV BND1      x[1,2,2,0]
 BV BND1      x[1,2,2,1]
 BV BND1      x[1,2,2,2]
 BV BND1      x[2,0,0,0]
 BV BND1      x[2,0,0,1]
 BV BND1      x[2,0,0,2]
 BV BND1      x[2,0,1,0]
 BV BND1      x[2,0,1,1]
 BV BND1      x[2,0,1,2]
 BV BND1      x[2,0,2,0]
 BV BND1      x[2,0,2,1]
 BV BND1      x[2,0,2,2]
 BV BND1      x[2,1,0,0]
 BV BND1      x[2,1,0,1]
 BV BND1      x[2,1,0,2]
 BV BND1      x[2,1,1,0]
 BV BND1      x[2,1,1,1]
 BV BND1      x[2,1,1,2]
 BV BND1      x[2,1,2,0]
 BV BND1      x[2,1,2,1]
 BV BND1      x[2,1,2,2]
 BV BND1      x[2,2,0,0]
 BV BND1      x[2,2,0,1]
 BV BND1      x[2,2,0,2]
 BV BND1      x[2,2,1,0]
 BV BND1      x[2,2,1,1]
 BV BND1      x[2,2,1,2]
 BV BND1      x[2,2,2,0]
 BV BND1      x[2,2,2,1]
 BV BND1      x[2,2,2,2]
 LI BND1      s[0,0,3]  0
 LI BND1      s[0,0,4]  0
 LI BND1      s[0,1,0]  0
 LI BND1      s[0,1,2]  0
 LI BND1      s[0,2,3]  0
 LI BND1      s[0,2,4]  0
 LI BND1      s[1,0,2]  0
 LI BND1      s[1,0,3]  0
 LI BND1      s[1,1,2]  0
 LI BND1      s[1,1,3]  0
 LI BND1      s[1,2,1]  0
 LI BND1      s[1,2,4]  0
 LI BND1      s[2,0,1]  0
 LI BND1      s[2,0,4]  0
 LI BND1      s[2,1,1]  0
 LI BND1      s[2,1,2]  0
 LI BND1      s[2,2,0]  0
 LI BND1      s[2,2,2]  0
 LI BND1      Z_FO      0
 BV BND1      C118    
 BV BND1      C119    
 BV BND1      C120    
 BV BND1      C121    
 BV BND1      C122    
 BV BND1      C123    
QCMATRIX   OF_constraint
    s[0,0,3]  C118      -0.5
    C118      s[0,0,3]  -0.5
    s[0,0,4]  C119      -0.5
    C119      s[0,0,4]  -0.5
    s[1,0,2]  C120      -0.5
    C120      s[1,0,2]  -0.5
    s[1,0,3]  C121      -0.5
    C121      s[1,0,3]  -0.5
    s[2,0,1]  C122      -0.5
    C122      s[2,0,1]  -0.5
    s[2,0,4]  C123      -0.5
    C123      s[2,0,4]  -0.5
ENDATA
